33D32945 STP File, STP Format Version 1.0

SECTION Comments
Name "edge_n12_d4_s17"
Problem "Euclidean Steiner Tree Problem"
Remark "Generated with STPGenerator. 4 dimensions."
END

SECTION Graph
Nodes 12
END

SECTION Coordinates
DDDD 0 0.5717940003 0.5717940003 0.5717940003 0.5717940003
DDDD 1 0.0018524737 0.0018524737 0.0018524737 0.0018524737
DDDD 2 0.1227083798 0.1227083798 0.1227083798 0.1227083798
DDDD 3 0.9171544332 0.9171544332 0.9171544332 0.9171544332
DDDD 4 0.8540148287 0.8540148287 0.8540148287 0.8540148287
DDDD 5 0.2275495600 0.2275495600 0.2275495600 0.2275495600
DDDD 6 0.1078885724 0.1078885724 0.1078885724 0.1078885724
DDDD 7 0.4860870128 0.4860870128 0.4860870128 0.4860870128
DDDD 8 0.6620165676 0.6620165676 0.6620165676 0.6620165676
DDDD 9 0.9043156765 0.9043156765 0.9043156765 0.9043156765
DDDD 10 0.6258278161 0.6258278161 0.6258278161 0.6258278161
DDDD 11 0.2151280480 0.2151280480 0.2151280480 0.2151280480
END
